Route #1: 221 258 294 295 296 297 298 299 293 292 328 329 330 331 332 333 334 335 336 337 338 339 340 341 342 343 344 345 346 347 348 349 350 351 352 353 354 355 356 320 318 319 283 282
Route #2: 223 259 260 261 262 263 264 300 301 302 303 304 305 306 307 308 309 310 311 312 313 314 315 316 317 281 279 280 244 229 265 266 267 268 269 270 271 272 273 274 275 276 277 278 242 243
Route #3: 116 152 153 154 190 189 188 224 225 226 227 228 192 191 155 156 157 193 158 159 160 196 197 198 195 194 230 231 232 233 234 235 236 237 238 239 240 241 205 206 207 208 172 171 170 134
Route #4: 108 107 106 142 143 144 141 177 175 176 212 213 249 250 286 287 323 324 289 290 326 327 325 360 359 357 358 322 321 285 284 248 246 247 211 209 245 210 174 173 137 138 139 140 104 105
Route #5: 40 76 112 113 114 150 151 187 186 222 185 182 183 184 148 149 179 180 216 181 217 218 219 220 256 257 255 291 254 253 288 252 251 215 214 178 145 146 147 111 110 109 73 74
Route #6: 21 58 61 60 59 95 96 94 130 128 129 127 126 125 161 162 163 199 200 201 202 203 204 168 169 164 165 166 167 131 132 133 135 136 100 99 97 98 101 102 103 67 68 69 70 33
Route #7: 22 23
Route #8: 24 25 26 62 63 64 65 66 71 72 37 38 39 75 77 78 79 115 117 118 119 120 121 122 123 124 88 85 86 87 89 90 91 92 93 57 56 53 54 55 19 18 20
Route #9: 27 28 29 30 31 32 34 35 36 1 2 3 4 5 41 42 43 46 45 44 80 81 82 83 84 48 47 49 50 51 52 16 17 6 7 8 9 10 11 12 13 14 15
Cost 12372.805711611656